column=8;
row=8;
Board=[|1,0,0,0,0,8,0,4|0,0,0,5,0,0,2,0|0,0,0,1,4,0,0,5|0,0,0,0,0,0,4,0|4,0,2,0,8,0,0,7|0,0,0,2,0,0,8,3|0,5,0,8,0,0,6,2|0,0,0,0,7,0,0,0|];
horizontal=[|0,0,1,2,0,0,1|0,0,1,2,1,0,1|0,0,0,1,0,0,2|0,0,2,2,2,0,0|2,2,0,0,0,0,1|0,1,0,0,2,0,0|0,0,0,0,0,0,0|2,0,0,0,0,0,2|];
vertical=[|0,0,2,0,2,2,2,0|0,0,0,0,1,0,0,0|0,2,0,1,0,0,2,1|0,0,0,0,0,1,0,0|0,2,0,0,2,2,0,0|2,1,0,0,0,0,0,2|1,0,0,0,0,0,2,2|];
